10 20
1 0 0 1 0 1 0 1 1 1 0 0 1 0 1 0 1 0 1 1
1 0 0 0 1 1 1 0 0 0 1 1 1 0 1 0 1 0 1 0
0 0 0 0 0 1 1 1 0 1 0 1 0 1 0 1 0 1 1 1
1 0 1 0 1 0 1 1 1 0 1 0 1 0 1 0 1 0 0 0 
0 0 1 1 1 1 1 1 1 1 0 0 0 0 0 0 1 0 1 0
0 0 1 1 1 1 0 0 0 0 1 1 1 1 0 0 0 0 0 0
1 1 1 1 1 1 1 1 1 0 0 0 0 0 0 1 1 1 0 1
0 1 0 1 0 1 0 1 0 1 0 1 0 1 0 1 0 1 0 1
0 1 0 1 0 1 0 0 0 0 0 0 1 1 1 1 0 0 0 1 
0 1 0 1 0 0 0 1 1 1 0 1 0 0 1 1 1 0 1 0
 
2 4 1 6 8 5 4 5 6 7 8 9 1 2 4 6 3 7 5 6